\* 1D_cutting_stock *\
Minimize
obj: Pat0 + Pat1 + Pat10 + Pat11 + Pat2 + Pat3 + Pat4 + Pat5 + Pat6 + Pat7
 + Pat8 + Pat9
Subject To
C0: Pat0 >= 65
C1: Pat1 >= 29
C10: Pat10 >= 58
C11: Pat11 >= 22
C2: Pat2 >= 70
C3: Pat3 >= 84
C4: Pat4 >= 46
C5: Pat5 >= 18
C6: Pat6 >= 68
C7: Pat7 >= 87
C8: Pat8 >= 80
C9: Pat9 >= 59
End
